p cnf 814 2614
1 0
2 0
3 0
4 0
5 0
6 0
7 0
8 0
9 0
-10 0
-11 0
-12 0
-13 0
-14 0
-15 0
-16 0
-17 0
-18 0
-19 0
20 21 22 23 0
-20 -21 0
-20 -22 0
-20 -23 0
-21 -22 0
-21 -23 0
-22 -23 0
24 -1 -25 0
1 -24 -25 0
-24 -1 25 0
1 24 25 0
-20 -25 0
1 -26 -27 0
26 -1 -27 0
27 -1 -26 0
27 1 26 0
-21 27 0
-24 28 0
-26 28 0
-29 28 0
24 26 29 -28 0
1 -28 -30 0
-1 28 -30 0
-1 -28 30 0
1 28 30 0
-22 30 0
24 31 0
26 31 0
29 31 0
-24 -26 -29 -31 0
-1 31 -32 0
1 -31 -32 0
32 -31 -1 0
1 31 32 0
-23 -32 0
26 -33 -34 0
33 -26 -34 0
-26 -33 34 0
26 33 34 0
-20 -34 0
33 -29 -35 0
29 -33 -35 0
35 -33 -29 0
35 33 29 0
-21 35 0
-26 36 0
-29 36 0
26 29 -36 0
33 -36 -37 0
-33 36 -37 0
-33 -36 37 0
33 36 37 0
-22 37 0
26 38 0
29 38 0
-26 -29 -38 0
-33 38 -39 0
33 -38 -39 0
39 -38 -33 0
33 38 39 0
-23 -39 0
29 -40 -41 0
40 -29 -41 0
-29 -40 41 0
29 40 41 0
-20 -41 0
40 -29 -42 0
29 -40 -42 0
42 -40 -29 0
42 40 29 0
-21 42 0
-22 42 0
-23 42 0
43 -2 -44 0
2 -43 -44 0
-43 -2 44 0
2 43 44 0
-20 -44 0
2 -45 -46 0
45 -2 -46 0
46 -2 -45 0
46 2 45 0
-21 46 0
-43 47 0
-45 47 0
-48 47 0
-49 47 0
-50 47 0
-51 47 0
43 45 48 49 50 51 -47 0
2 -47 -52 0
-2 47 -52 0
-2 -47 52 0
2 47 52 0
-22 52 0
43 53 0
45 53 0
48 53 0
49 53 0
50 53 0
51 53 0
-54 0
-2 53 -55 0
2 -53 -55 0
55 -53 -2 0
2 53 55 0
-23 -55 0
45 -56 -57 0
56 -45 -57 0
-45 -56 57 0
45 56 57 0
-20 -57 0
56 -48 -58 0
48 -56 -58 0
58 -56 -48 0
58 56 48 0
-21 58 0
-45 59 0
-48 59 0
-49 59 0
-50 59 0
-51 59 0
45 48 49 50 51 -59 0
56 -59 -60 0
-56 59 -60 0
-56 -59 60 0
56 59 60 0
-22 60 0
45 61 0
48 61 0
49 61 0
50 61 0
51 61 0
-62 0
-56 61 -63 0
56 -61 -63 0
63 -61 -56 0
56 61 63 0
-23 -63 0
48 -3 -64 0
3 -48 -64 0
-48 -3 64 0
48 3 64 0
-20 -64 0
3 -49 -65 0
49 -3 -65 0
65 -3 -49 0
65 3 49 0
-21 65 0
-48 66 0
-49 66 0
-50 66 0
-51 66 0
48 49 50 51 -66 0
3 -66 -67 0
-3 66 -67 0
-3 -66 67 0
3 66 67 0
-22 67 0
48 68 0
49 68 0
50 68 0
51 68 0
-69 0
-3 68 -70 0
3 -68 -70 0
70 -68 -3 0
3 68 70 0
-23 -70 0
49 -71 -72 0
71 -49 -72 0
-49 -71 72 0
49 71 72 0
-20 -72 0
71 -50 -73 0
50 -71 -73 0
73 -71 -50 0
73 71 50 0
-21 73 0
71 -66 -74 0
-71 66 -74 0
-71 -66 74 0
71 66 74 0
-22 74 0
-71 68 -75 0
71 -68 -75 0
75 -68 -71 0
71 68 75 0
-23 -75 0
50 -76 -77 0
76 -50 -77 0
-50 -76 77 0
50 76 77 0
-20 -77 0
76 -51 -78 0
51 -76 -78 0
78 -76 -51 0
78 76 51 0
-21 78 0
76 -66 -79 0
-76 66 -79 0
-76 -66 79 0
76 66 79 0
-22 79 0
-76 68 -80 0
76 -68 -80 0
80 -68 -76 0
76 68 80 0
-23 -80 0
51 -81 -82 0
81 -51 -82 0
-51 -81 82 0
51 81 82 0
-20 -82 0
-48 81 -83 0
48 -81 -83 0
83 -81 -48 0
83 81 48 0
-21 83 0
81 -66 -84 0
-81 66 -84 0
-81 -66 84 0
81 66 84 0
-22 84 0
-81 68 -85 0
81 -68 -85 0
85 -68 -81 0
81 68 85 0
-23 -85 0
86 -4 -87 0
4 -86 -87 0
-86 -4 87 0
4 86 87 0
-20 -87 0
-50 4 -88 0
50 -4 -88 0
88 -4 -50 0
88 4 50 0
-21 88 0
-48 89 0
-49 89 0
-50 89 0
-51 89 0
-86 89 0
48 49 50 51 86 -89 0
4 -89 -90 0
-4 89 -90 0
-4 -89 90 0
4 89 90 0
-22 90 0
48 91 0
49 91 0
50 91 0
51 91 0
86 91 0
-92 0
-4 91 -93 0
4 -91 -93 0
93 -91 -4 0
4 91 93 0
-23 -93 0
94 -5 -95 0
5 -94 -95 0
-94 -5 95 0
5 94 95 0
-20 -95 0
5 -96 -97 0
96 -5 -97 0
97 -5 -96 0
97 5 96 0
-21 97 0
-94 98 0
-96 98 0
-99 98 0
-100 98 0
-101 98 0
-102 98 0
103 0
5 -98 -104 0
-5 98 -104 0
-5 -98 104 0
5 98 104 0
-22 104 0
94 105 0
96 105 0
99 105 0
100 105 0
101 105 0
102 105 0
-106 0
-5 105 -107 0
5 -105 -107 0
107 -105 -5 0
5 105 107 0
-23 -107 0
96 -108 -109 0
108 -96 -109 0
-96 -108 109 0
96 108 109 0
-20 -109 0
108 -99 -110 0
99 -108 -110 0
110 -108 -99 0
110 108 99 0
-21 110 0
-96 111 0
-99 111 0
-100 111 0
-101 111 0
-102 111 0
96 99 100 101 102 -111 0
108 -111 -112 0
-108 111 -112 0
-108 -111 112 0
108 111 112 0
-22 112 0
96 113 0
99 113 0
100 113 0
101 113 0
102 113 0
-114 0
-108 113 -115 0
108 -113 -115 0
115 -113 -108 0
108 113 115 0
-23 -115 0
99 -116 -117 0
116 -99 -117 0
-99 -116 117 0
99 116 117 0
-20 -117 0
116 -100 -118 0
100 -116 -118 0
118 -116 -100 0
118 116 100 0
-21 118 0
-99 119 0
-100 119 0
-101 119 0
-102 119 0
99 100 101 102 -119 0
116 -119 -120 0
-116 119 -120 0
-116 -119 120 0
116 119 120 0
-22 120 0
99 121 0
100 121 0
101 121 0
102 121 0
-122 0
-116 121 -123 0
116 -121 -123 0
123 -121 -116 0
116 121 123 0
-23 -123 0
100 -124 -125 0
124 -100 -125 0
-100 -124 125 0
100 124 125 0
-20 -125 0
124 -101 -126 0
101 -124 -126 0
126 -124 -101 0
126 124 101 0
-21 126 0
124 -119 -127 0
-124 119 -127 0
-124 -119 127 0
124 119 127 0
-22 127 0
-124 121 -128 0
124 -121 -128 0
128 -121 -124 0
124 121 128 0
-23 -128 0
101 -129 -130 0
129 -101 -130 0
-101 -129 130 0
101 129 130 0
-20 -130 0
129 -102 -131 0
102 -129 -131 0
131 -129 -102 0
131 129 102 0
-21 131 0
129 -119 -132 0
-129 119 -132 0
-129 -119 132 0
129 119 132 0
-22 132 0
-129 121 -133 0
129 -121 -133 0
133 -121 -129 0
129 121 133 0
-23 -133 0
102 -134 -135 0
134 -102 -135 0
-102 -134 135 0
102 134 135 0
-20 -135 0
-99 134 -136 0
99 -134 -136 0
136 -134 -99 0
136 134 99 0
-21 136 0
134 -119 -137 0
-134 119 -137 0
-134 -119 137 0
134 119 137 0
-22 137 0
-134 121 -138 0
134 -121 -138 0
138 -121 -134 0
134 121 138 0
-23 -138 0
139 -6 -140 0
6 -139 -140 0
-139 -6 140 0
6 139 140 0
-20 -140 0
-86 6 -141 0
86 -6 -141 0
141 -6 -86 0
141 6 86 0
-21 141 0
-48 142 0
-49 142 0
-50 142 0
-51 142 0
-86 142 0
-139 142 0
48 49 50 51 86 139 -142 0
6 -142 -143 0
-6 142 -143 0
-6 -142 143 0
6 142 143 0
-22 143 0
48 144 0
49 144 0
50 144 0
51 144 0
86 144 0
139 144 0
-145 0
-6 144 -146 0
6 -144 -146 0
146 -144 -6 0
6 144 146 0
-23 -146 0
147 -7 -148 0
7 -147 -148 0
-147 -7 148 0
7 147 148 0
-20 -148 0
7 -149 -150 0
149 -7 -150 0
150 -7 -149 0
150 7 149 0
-21 150 0
-99 151 0
-100 151 0
-101 151 0
-102 151 0
-147 151 0
-149 151 0
-152 151 0
153 0
7 -151 -154 0
-7 151 -154 0
-7 -151 154 0
7 151 154 0
-22 154 0
99 155 0
100 155 0
101 155 0
102 155 0
147 155 0
149 155 0
152 155 0
-156 0
-7 155 -157 0
7 -155 -157 0
157 -155 -7 0
7 155 157 0
-23 -157 0
149 -158 -159 0
158 -149 -159 0
-149 -158 159 0
149 158 159 0
-20 -159 0
158 -152 -160 0
152 -158 -160 0
160 -158 -152 0
160 158 152 0
-21 160 0
-99 161 0
-100 161 0
-101 161 0
-102 161 0
-149 161 0
-152 161 0
162 0
158 -161 -163 0
-158 161 -163 0
-158 -161 163 0
158 161 163 0
-22 163 0
99 164 0
100 164 0
101 164 0
102 164 0
149 164 0
152 164 0
-165 0
-158 164 -166 0
158 -164 -166 0
166 -164 -158 0
158 164 166 0
-23 -166 0
152 -167 -168 0
167 -152 -168 0
-152 -167 168 0
152 167 168 0
-20 -168 0
-100 167 -169 0
100 -167 -169 0
169 -167 -100 0
169 167 100 0
-21 169 0
-99 170 0
-100 170 0
-101 170 0
-102 170 0
-152 170 0
99 100 101 102 152 -170 0
167 -170 -171 0
-167 170 -171 0
-167 -170 171 0
167 170 171 0
-22 171 0
99 172 0
100 172 0
101 172 0
102 172 0
152 172 0
-173 0
-167 172 -174 0
167 -172 -174 0
174 -172 -167 0
167 172 174 0
-23 -174 0
175 -8 -176 0
8 -175 -176 0
-175 -8 176 0
8 175 176 0
-20 -176 0
-51 8 -177 0
51 -8 -177 0
177 -8 -51 0
177 8 51 0
-21 177 0
-48 178 0
-49 178 0
-50 178 0
-51 178 0
-175 178 0
48 49 50 51 175 -178 0
8 -178 -179 0
-8 178 -179 0
-8 -178 179 0
8 178 179 0
-22 179 0
48 180 0
49 180 0
50 180 0
51 180 0
175 180 0
-181 0
-8 180 -182 0
8 -180 -182 0
182 -180 -8 0
8 180 182 0
-23 -182 0
183 -9 -184 0
9 -183 -184 0
-183 -9 184 0
9 183 184 0
-20 -184 0
9 -185 -186 0
185 -9 -186 0
186 -9 -185 0
186 9 185 0
-21 186 0
-29 187 0
-183 187 0
-185 187 0
29 183 185 -187 0
9 -187 -188 0
-9 187 -188 0
-9 -187 188 0
9 187 188 0
-22 188 0
29 189 0
183 189 0
185 189 0
-29 -183 -185 -189 0
-9 189 -190 0
9 -189 -190 0
190 -189 -9 0
9 189 190 0
-23 -190 0
185 -191 -192 0
191 -185 -192 0
-185 -191 192 0
185 191 192 0
-20 -192 0
-29 191 -193 0
29 -191 -193 0
193 -191 -29 0
193 191 29 0
-21 193 0
-29 194 0
-185 194 0
29 185 -194 0
191 -194 -195 0
-191 194 -195 0
-191 -194 195 0
191 194 195 0
-22 195 0
29 196 0
185 196 0
-29 -185 -196 0
-191 196 -197 0
191 -196 -197 0
197 -196 -191 0
191 196 197 0
-23 -197 0
198 -10 -199 0
10 -198 -199 0
-198 -10 199 0
10 198 199 0
-20 -199 0
10 -200 -201 0
200 -10 -201 0
201 -10 -200 0
201 10 200 0
-21 201 0
-198 202 0
-200 202 0
-203 202 0
-204 202 0
-205 202 0
-206 202 0
207 0
10 -202 -208 0
-10 202 -208 0
-10 -202 208 0
10 202 208 0
-22 208 0
198 209 0
200 209 0
203 209 0
204 209 0
205 209 0
206 209 0
-210 0
-10 209 -211 0
10 -209 -211 0
211 -209 -10 0
10 209 211 0
-23 -211 0
200 -212 -213 0
212 -200 -213 0
-200 -212 213 0
200 212 213 0
-20 -213 0
212 -203 -214 0
203 -212 -214 0
214 -212 -203 0
214 212 203 0
-21 214 0
-200 215 0
-203 215 0
-204 215 0
-205 215 0
-206 215 0
200 203 204 205 206 -215 0
212 -215 -216 0
-212 215 -216 0
-212 -215 216 0
212 215 216 0
-22 216 0
200 217 0
203 217 0
204 217 0
205 217 0
206 217 0
-218 0
-212 217 -219 0
212 -217 -219 0
219 -217 -212 0
212 217 219 0
-23 -219 0
203 -220 -221 0
220 -203 -221 0
-203 -220 221 0
203 220 221 0
-20 -221 0
220 -204 -222 0
204 -220 -222 0
222 -220 -204 0
222 220 204 0
-21 222 0
-203 223 0
-204 223 0
-205 223 0
-206 223 0
203 204 205 206 -223 0
220 -223 -224 0
-220 223 -224 0
-220 -223 224 0
220 223 224 0
-22 224 0
203 225 0
204 225 0
205 225 0
206 225 0
-226 0
-220 225 -227 0
220 -225 -227 0
227 -225 -220 0
220 225 227 0
-23 -227 0
204 -228 -229 0
228 -204 -229 0
-204 -228 229 0
204 228 229 0
-20 -229 0
228 -205 -230 0
205 -228 -230 0
230 -228 -205 0
230 228 205 0
-21 230 0
228 -223 -231 0
-228 223 -231 0
-228 -223 231 0
228 223 231 0
-22 231 0
-228 225 -232 0
228 -225 -232 0
232 -225 -228 0
228 225 232 0
-23 -232 0
205 -233 -234 0
233 -205 -234 0
-205 -233 234 0
205 233 234 0
-20 -234 0
233 -206 -235 0
206 -233 -235 0
235 -233 -206 0
235 233 206 0
-21 235 0
233 -223 -236 0
-233 223 -236 0
-233 -223 236 0
233 223 236 0
-22 236 0
-233 225 -237 0
233 -225 -237 0
237 -225 -233 0
233 225 237 0
-23 -237 0
206 -238 -239 0
238 -206 -239 0
-206 -238 239 0
206 238 239 0
-20 -239 0
-203 238 -240 0
203 -238 -240 0
240 -238 -203 0
240 238 203 0
-21 240 0
238 -223 -241 0
-238 223 -241 0
-238 -223 241 0
238 223 241 0
-22 241 0
-238 225 -242 0
238 -225 -242 0
242 -225 -238 0
238 225 242 0
-23 -242 0
243 -11 -244 0
11 -243 -244 0
-243 -11 244 0
11 243 244 0
-20 -244 0
11 -245 -246 0
245 -11 -246 0
246 -11 -245 0
246 11 245 0
-21 246 0
-243 247 0
-245 247 0
-248 247 0
-249 247 0
-250 247 0
-251 247 0
252 0
11 -247 -253 0
-11 247 -253 0
-11 -247 253 0
11 247 253 0
-22 253 0
243 254 0
245 254 0
248 254 0
249 254 0
250 254 0
251 254 0
-255 0
-11 254 -256 0
11 -254 -256 0
256 -254 -11 0
11 254 256 0
-23 -256 0
245 -257 -258 0
257 -245 -258 0
-245 -257 258 0
245 257 258 0
-20 -258 0
257 -248 -259 0
248 -257 -259 0
259 -257 -248 0
259 257 248 0
-21 259 0
-245 260 0
-248 260 0
-249 260 0
-250 260 0
-251 260 0
245 248 249 250 251 -260 0
257 -260 -261 0
-257 260 -261 0
-257 -260 261 0
257 260 261 0
-22 261 0
245 262 0
248 262 0
249 262 0
250 262 0
251 262 0
-263 0
-257 262 -264 0
257 -262 -264 0
264 -262 -257 0
257 262 264 0
-23 -264 0
248 -265 -266 0
265 -248 -266 0
-248 -265 266 0
248 265 266 0
-20 -266 0
265 -249 -267 0
249 -265 -267 0
267 -265 -249 0
267 265 249 0
-21 267 0
-248 268 0
-249 268 0
-250 268 0
-251 268 0
248 249 250 251 -268 0
265 -268 -269 0
-265 268 -269 0
-265 -268 269 0
265 268 269 0
-22 269 0
248 270 0
249 270 0
250 270 0
251 270 0
-271 0
-265 270 -272 0
265 -270 -272 0
272 -270 -265 0
265 270 272 0
-23 -272 0
249 -273 -274 0
273 -249 -274 0
-249 -273 274 0
249 273 274 0
-20 -274 0
273 -250 -275 0
250 -273 -275 0
275 -273 -250 0
275 273 250 0
-21 275 0
-249 276 0
-250 276 0
-251 276 0
249 250 251 -276 0
273 -276 -277 0
-273 276 -277 0
-273 -276 277 0
273 276 277 0
-22 277 0
249 278 0
250 278 0
251 278 0
-249 -250 -251 -278 0
-273 278 -279 0
273 -278 -279 0
279 -278 -273 0
273 278 279 0
-23 -279 0
250 -280 -281 0
280 -250 -281 0
-250 -280 281 0
250 280 281 0
-20 -281 0
280 -251 -282 0
251 -280 -282 0
282 -280 -251 0
282 280 251 0
-21 282 0
-250 283 0
-251 283 0
250 251 -283 0
280 -283 -284 0
-280 283 -284 0
-280 -283 284 0
280 283 284 0
-22 284 0
250 285 0
251 285 0
-250 -251 -285 0
-280 285 -286 0
280 -285 -286 0
286 -285 -280 0
280 285 286 0
-23 -286 0
251 -287 -288 0
287 -251 -288 0
-251 -287 288 0
251 287 288 0
-20 -288 0
-250 287 -289 0
250 -287 -289 0
289 -287 -250 0
289 287 250 0
-21 289 0
287 -283 -290 0
-287 283 -290 0
-287 -283 290 0
287 283 290 0
-22 290 0
-287 285 -291 0
287 -285 -291 0
291 -285 -287 0
287 285 291 0
-23 -291 0
292 -12 -293 0
12 -292 -293 0
-292 -12 293 0
12 292 293 0
-20 -293 0
12 -294 -295 0
294 -12 -295 0
295 -12 -294 0
295 12 294 0
-21 295 0
-292 296 0
-294 296 0
-297 296 0
-298 296 0
-299 296 0
-300 296 0
301 0
12 -296 -302 0
-12 296 -302 0
-12 -296 302 0
12 296 302 0
-22 302 0
292 303 0
294 303 0
297 303 0
298 303 0
299 303 0
300 303 0
-304 0
-12 303 -305 0
12 -303 -305 0
305 -303 -12 0
12 303 305 0
-23 -305 0
294 -306 -307 0
306 -294 -307 0
-294 -306 307 0
294 306 307 0
-20 -307 0
306 -297 -308 0
297 -306 -308 0
308 -306 -297 0
308 306 297 0
-21 308 0
-294 309 0
-297 309 0
-298 309 0
-299 309 0
-300 309 0
294 297 298 299 300 -309 0
306 -309 -310 0
-306 309 -310 0
-306 -309 310 0
306 309 310 0
-22 310 0
294 311 0
297 311 0
298 311 0
299 311 0
300 311 0
-312 0
-306 311 -313 0
306 -311 -313 0
313 -311 -306 0
306 311 313 0
-23 -313 0
297 -314 -315 0
314 -297 -315 0
-297 -314 315 0
297 314 315 0
-20 -315 0
314 -298 -316 0
298 -314 -316 0
316 -314 -298 0
316 314 298 0
-21 316 0
-297 317 0
-298 317 0
-299 317 0
-300 317 0
297 298 299 300 -317 0
314 -317 -318 0
-314 317 -318 0
-314 -317 318 0
314 317 318 0
-22 318 0
297 319 0
298 319 0
299 319 0
300 319 0
-320 0
-314 319 -321 0
314 -319 -321 0
321 -319 -314 0
314 319 321 0
-23 -321 0
298 -322 -323 0
322 -298 -323 0
-298 -322 323 0
298 322 323 0
-20 -323 0
322 -299 -324 0
299 -322 -324 0
324 -322 -299 0
324 322 299 0
-21 324 0
-298 325 0
-299 325 0
-300 325 0
298 299 300 -325 0
322 -325 -326 0
-322 325 -326 0
-322 -325 326 0
322 325 326 0
-22 326 0
298 327 0
299 327 0
300 327 0
-298 -299 -300 -327 0
-322 327 -328 0
322 -327 -328 0
328 -327 -322 0
322 327 328 0
-23 -328 0
299 -329 -330 0
329 -299 -330 0
-299 -329 330 0
299 329 330 0
-20 -330 0
329 -300 -331 0
300 -329 -331 0
331 -329 -300 0
331 329 300 0
-21 331 0
329 -325 -332 0
-329 325 -332 0
-329 -325 332 0
329 325 332 0
-22 332 0
-329 327 -333 0
329 -327 -333 0
333 -327 -329 0
329 327 333 0
-23 -333 0
300 -334 -335 0
334 -300 -335 0
-300 -334 335 0
300 334 335 0
-20 -335 0
-298 334 -336 0
298 -334 -336 0
336 -334 -298 0
336 334 298 0
-21 336 0
334 -325 -337 0
-334 325 -337 0
-334 -325 337 0
334 325 337 0
-22 337 0
-334 327 -338 0
334 -327 -338 0
338 -327 -334 0
334 327 338 0
-23 -338 0
339 -13 -340 0
13 -339 -340 0
-339 -13 340 0
13 339 340 0
-20 -340 0
13 -341 -342 0
341 -13 -342 0
342 -13 -341 0
342 13 341 0
-21 342 0
-339 343 0
-341 343 0
-344 343 0
-345 343 0
-346 343 0
-347 343 0
-348 343 0
-349 343 0
350 0
13 -343 -351 0
-13 343 -351 0
-13 -343 351 0
13 343 351 0
-22 351 0
339 352 0
341 352 0
344 352 0
345 352 0
346 352 0
347 352 0
348 352 0
349 352 0
-353 0
-13 352 -354 0
13 -352 -354 0
354 -352 -13 0
13 352 354 0
-23 -354 0
341 -355 -356 0
355 -341 -356 0
-341 -355 356 0
341 355 356 0
-20 -356 0
355 -344 -357 0
344 -355 -357 0
357 -355 -344 0
357 355 344 0
-21 357 0
-341 358 0
-344 358 0
-345 358 0
-346 358 0
-347 358 0
-348 358 0
-349 358 0
359 0
355 -358 -360 0
-355 358 -360 0
-355 -358 360 0
355 358 360 0
-22 360 0
341 361 0
344 361 0
345 361 0
346 361 0
347 361 0
348 361 0
349 361 0
-362 0
-355 361 -363 0
355 -361 -363 0
363 -361 -355 0
355 361 363 0
-23 -363 0
344 -364 -365 0
364 -344 -365 0
-344 -364 365 0
344 364 365 0
-20 -365 0
364 -345 -366 0
345 -364 -366 0
366 -364 -345 0
366 364 345 0
-21 366 0
-344 367 0
-345 367 0
-346 367 0
-347 367 0
-348 367 0
-349 367 0
368 0
364 -367 -369 0
-364 367 -369 0
-364 -367 369 0
364 367 369 0
-22 369 0
344 370 0
345 370 0
346 370 0
347 370 0
348 370 0
349 370 0
-371 0
-364 370 -372 0
364 -370 -372 0
372 -370 -364 0
364 370 372 0
-23 -372 0
345 -373 -374 0
373 -345 -374 0
-345 -373 374 0
345 373 374 0
-20 -374 0
373 -346 -375 0
346 -373 -375 0
375 -373 -346 0
375 373 346 0
-21 375 0
-345 376 0
-346 376 0
-347 376 0
-348 376 0
-349 376 0
345 346 347 348 349 -376 0
373 -376 -377 0
-373 376 -377 0
-373 -376 377 0
373 376 377 0
-22 377 0
345 378 0
346 378 0
347 378 0
348 378 0
349 378 0
-379 0
-373 378 -380 0
373 -378 -380 0
380 -378 -373 0
373 378 380 0
-23 -380 0
346 -381 -382 0
381 -346 -382 0
-346 -381 382 0
346 381 382 0
-20 -382 0
381 -347 -383 0
347 -381 -383 0
383 -381 -347 0
383 381 347 0
-21 383 0
-346 384 0
-347 384 0
-348 384 0
-349 384 0
346 347 348 349 -384 0
381 -384 -385 0
-381 384 -385 0
-381 -384 385 0
381 384 385 0
-22 385 0
346 386 0
347 386 0
348 386 0
349 386 0
-387 0
-381 386 -388 0
381 -386 -388 0
388 -386 -381 0
381 386 388 0
-23 -388 0
347 -389 -390 0
389 -347 -390 0
-347 -389 390 0
347 389 390 0
-20 -390 0
389 -348 -391 0
348 -389 -391 0
391 -389 -348 0
391 389 348 0
-21 391 0
389 -384 -392 0
-389 384 -392 0
-389 -384 392 0
389 384 392 0
-22 392 0
-389 386 -393 0
389 -386 -393 0
393 -386 -389 0
389 386 393 0
-23 -393 0
348 -394 -395 0
394 -348 -395 0
-348 -394 395 0
348 394 395 0
-20 -395 0
394 -349 -396 0
349 -394 -396 0
396 -394 -349 0
396 394 349 0
-21 396 0
394 -384 -397 0
-394 384 -397 0
-394 -384 397 0
394 384 397 0
-22 397 0
-394 386 -398 0
394 -386 -398 0
398 -386 -394 0
394 386 398 0
-23 -398 0
349 -399 -400 0
399 -349 -400 0
-349 -399 400 0
349 399 400 0
-20 -400 0
-346 399 -401 0
346 -399 -401 0
401 -399 -346 0
401 399 346 0
-21 401 0
399 -384 -402 0
-399 384 -402 0
-399 -384 402 0
399 384 402 0
-22 402 0
-399 386 -403 0
399 -386 -403 0
403 -386 -399 0
399 386 403 0
-23 -403 0
404 -14 -405 0
14 -404 -405 0
-404 -14 405 0
14 404 405 0
-20 -405 0
14 -406 -407 0
406 -14 -407 0
407 -14 -406 0
407 14 406 0
-21 407 0
-250 408 0
-251 408 0
-404 408 0
-406 408 0
250 251 404 406 -408 0
14 -408 -409 0
-14 408 -409 0
-14 -408 409 0
14 408 409 0
-22 409 0
250 410 0
251 410 0
404 410 0
406 410 0
-411 0
-14 410 -412 0
14 -410 -412 0
412 -410 -14 0
14 410 412 0
-23 -412 0
406 -413 -414 0
413 -406 -414 0
-406 -413 414 0
406 413 414 0
-20 -414 0
-251 413 -415 0
251 -413 -415 0
415 -413 -251 0
415 413 251 0
-21 415 0
-250 416 0
-251 416 0
-406 416 0
250 251 406 -416 0
413 -416 -417 0
-413 416 -417 0
-413 -416 417 0
413 416 417 0
-22 417 0
250 418 0
251 418 0
406 418 0
-250 -251 -406 -418 0
-413 418 -419 0
413 -418 -419 0
419 -418 -413 0
413 418 419 0
-23 -419 0
420 -15 -421 0
15 -420 -421 0
-420 -15 421 0
15 420 421 0
-20 -421 0
15 -422 -423 0
422 -15 -423 0
423 -15 -422 0
423 15 422 0
-21 423 0
-420 424 0
-422 424 0
-425 424 0
-426 424 0
-427 424 0
420 422 425 426 427 -424 0
15 -424 -428 0
-15 424 -428 0
-15 -424 428 0
15 424 428 0
-22 428 0
420 429 0
422 429 0
425 429 0
426 429 0
427 429 0
-430 0
-15 429 -431 0
15 -429 -431 0
431 -429 -15 0
15 429 431 0
-23 -431 0
422 -432 -433 0
432 -422 -433 0
-422 -432 433 0
422 432 433 0
-20 -433 0
432 -425 -434 0
425 -432 -434 0
434 -432 -425 0
434 432 425 0
-21 434 0
-422 435 0
-425 435 0
-426 435 0
-427 435 0
422 425 426 427 -435 0
432 -435 -436 0
-432 435 -436 0
-432 -435 436 0
432 435 436 0
-22 436 0
422 437 0
425 437 0
426 437 0
427 437 0
-438 0
-432 437 -439 0
432 -437 -439 0
439 -437 -432 0
432 437 439 0
-23 -439 0
425 -440 -441 0
440 -425 -441 0
-425 -440 441 0
425 440 441 0
-20 -441 0
440 -426 -442 0
426 -440 -442 0
442 -440 -426 0
442 440 426 0
-21 442 0
-425 443 0
-426 443 0
-427 443 0
425 426 427 -443 0
440 -443 -444 0
-440 443 -444 0
-440 -443 444 0
440 443 444 0
-22 444 0
425 445 0
426 445 0
427 445 0
-425 -426 -427 -445 0
-440 445 -446 0
440 -445 -446 0
446 -445 -440 0
440 445 446 0
-23 -446 0
426 -447 -448 0
447 -426 -448 0
-426 -447 448 0
426 447 448 0
-20 -448 0
447 -427 -449 0
427 -447 -449 0
449 -447 -427 0
449 447 427 0
-21 449 0
447 -443 -450 0
-447 443 -450 0
-447 -443 450 0
447 443 450 0
-22 450 0
-447 445 -451 0
447 -445 -451 0
451 -445 -447 0
447 445 451 0
-23 -451 0
427 -452 -453 0
452 -427 -453 0
-427 -452 453 0
427 452 453 0
-20 -453 0
-425 452 -454 0
425 -452 -454 0
454 -452 -425 0
454 452 425 0
-21 454 0
452 -443 -455 0
-452 443 -455 0
-452 -443 455 0
452 443 455 0
-22 455 0
-452 445 -456 0
452 -445 -456 0
456 -445 -452 0
452 445 456 0
-23 -456 0
457 -16 -458 0
16 -457 -458 0
-457 -16 458 0
16 457 458 0
-20 -458 0
16 -459 -460 0
459 -16 -460 0
460 -16 -459 0
460 16 459 0
-21 460 0
-457 461 0
-459 461 0
-462 461 0
-463 461 0
-464 461 0
457 459 462 463 464 -461 0
16 -461 -465 0
-16 461 -465 0
-16 -461 465 0
16 461 465 0
-22 465 0
457 466 0
459 466 0
462 466 0
463 466 0
464 466 0
-467 0
-16 466 -468 0
16 -466 -468 0
468 -466 -16 0
16 466 468 0
-23 -468 0
459 -469 -470 0
469 -459 -470 0
-459 -469 470 0
459 469 470 0
-20 -470 0
469 -462 -471 0
462 -469 -471 0
471 -469 -462 0
471 469 462 0
-21 471 0
-459 472 0
-462 472 0
-463 472 0
-464 472 0
459 462 463 464 -472 0
469 -472 -473 0
-469 472 -473 0
-469 -472 473 0
469 472 473 0
-22 473 0
459 474 0
462 474 0
463 474 0
464 474 0
-475 0
-469 474 -476 0
469 -474 -476 0
476 -474 -469 0
469 474 476 0
-23 -476 0
462 -477 -478 0
477 -462 -478 0
-462 -477 478 0
462 477 478 0
-20 -478 0
477 -463 -479 0
463 -477 -479 0
479 -477 -463 0
479 477 463 0
-21 479 0
-462 480 0
-463 480 0
-464 480 0
462 463 464 -480 0
477 -480 -481 0
-477 480 -481 0
-477 -480 481 0
477 480 481 0
-22 481 0
462 482 0
463 482 0
464 482 0
-462 -463 -464 -482 0
-477 482 -483 0
477 -482 -483 0
483 -482 -477 0
477 482 483 0
-23 -483 0
463 -484 -485 0
484 -463 -485 0
-463 -484 485 0
463 484 485 0
-20 -485 0
484 -464 -486 0
464 -484 -486 0
486 -484 -464 0
486 484 464 0
-21 486 0
-463 487 0
-464 487 0
463 464 -487 0
484 -487 -488 0
-484 487 -488 0
-484 -487 488 0
484 487 488 0
-22 488 0
463 489 0
464 489 0
-463 -464 -489 0
-484 489 -490 0
484 -489 -490 0
490 -489 -484 0
484 489 490 0
-23 -490 0
464 -491 -492 0
491 -464 -492 0
-464 -491 492 0
464 491 492 0
-20 -492 0
-463 491 -493 0
463 -491 -493 0
493 -491 -463 0
493 491 463 0
-21 493 0
491 -487 -494 0
-491 487 -494 0
-491 -487 494 0
491 487 494 0
-22 494 0
-491 489 -495 0
491 -489 -495 0
495 -489 -491 0
491 489 495 0
-23 -495 0
496 -17 -497 0
17 -496 -497 0
-496 -17 497 0
17 496 497 0
-20 -497 0
17 -498 -499 0
498 -17 -499 0
499 -17 -498 0
499 17 498 0
-21 499 0
-496 500 0
-498 500 0
-501 500 0
-502 500 0
-503 500 0
496 498 501 502 503 -500 0
17 -500 -504 0
-17 500 -504 0
-17 -500 504 0
17 500 504 0
-22 504 0
496 505 0
498 505 0
501 505 0
502 505 0
503 505 0
-506 0
-17 505 -507 0
17 -505 -507 0
507 -505 -17 0
17 505 507 0
-23 -507 0
498 -508 -509 0
508 -498 -509 0
-498 -508 509 0
498 508 509 0
-20 -509 0
508 -501 -510 0
501 -508 -510 0
510 -508 -501 0
510 508 501 0
-21 510 0
-498 511 0
-501 511 0
-502 511 0
-503 511 0
498 501 502 503 -511 0
508 -511 -512 0
-508 511 -512 0
-508 -511 512 0
508 511 512 0
-22 512 0
498 513 0
501 513 0
502 513 0
503 513 0
-514 0
-508 513 -515 0
508 -513 -515 0
515 -513 -508 0
508 513 515 0
-23 -515 0
501 -516 -517 0
516 -501 -517 0
-501 -516 517 0
501 516 517 0
-20 -517 0
516 -502 -518 0
502 -516 -518 0
518 -516 -502 0
518 516 502 0
-21 518 0
-501 519 0
-502 519 0
-503 519 0
501 502 503 -519 0
516 -519 -520 0
-516 519 -520 0
-516 -519 520 0
516 519 520 0
-22 520 0
501 521 0
502 521 0
503 521 0
-501 -502 -503 -521 0
-516 521 -522 0
516 -521 -522 0
522 -521 -516 0
516 521 522 0
-23 -522 0
502 -523 -524 0
523 -502 -524 0
-502 -523 524 0
502 523 524 0
-20 -524 0
523 -503 -525 0
503 -523 -525 0
525 -523 -503 0
525 523 503 0
-21 525 0
523 -519 -526 0
-523 519 -526 0
-523 -519 526 0
523 519 526 0
-22 526 0
-523 521 -527 0
523 -521 -527 0
527 -521 -523 0
523 521 527 0
-23 -527 0
503 -528 -529 0
528 -503 -529 0
-503 -528 529 0
503 528 529 0
-20 -529 0
-501 528 -530 0
501 -528 -530 0
530 -528 -501 0
530 528 501 0
-21 530 0
528 -519 -531 0
-528 519 -531 0
-528 -519 531 0
528 519 531 0
-22 531 0
-528 521 -532 0
528 -521 -532 0
532 -521 -528 0
528 521 532 0
-23 -532 0
533 -18 -534 0
18 -533 -534 0
-533 -18 534 0
18 533 534 0
-20 -534 0
18 -535 -536 0
535 -18 -536 0
536 -18 -535 0
536 18 535 0
-21 536 0
-29 537 0
-185 537 0
-533 537 0
-535 537 0
29 185 533 535 -537 0
18 -537 -538 0
-18 537 -538 0
-18 -537 538 0
18 537 538 0
-22 538 0
29 539 0
185 539 0
533 539 0
535 539 0
-540 0
-18 539 -541 0
18 -539 -541 0
541 -539 -18 0
18 539 541 0
-23 -541 0
535 -542 -543 0
542 -535 -543 0
-535 -542 543 0
535 542 543 0
-20 -543 0
-185 542 -544 0
185 -542 -544 0
544 -542 -185 0
544 542 185 0
-21 544 0
-29 545 0
-185 545 0
-535 545 0
29 185 535 -545 0
542 -545 -546 0
-542 545 -546 0
-542 -545 546 0
542 545 546 0
-22 546 0
29 547 0
185 547 0
535 547 0
-29 -185 -535 -547 0
-542 547 -548 0
542 -547 -548 0
548 -547 -542 0
542 547 548 0
-23 -548 0
549 -19 -550 0
19 -549 -550 0
-549 -19 550 0
19 549 550 0
-20 -550 0
19 -551 -552 0
551 -19 -552 0
552 -19 -551 0
552 19 551 0
-21 552 0
-549 553 0
-551 553 0
-554 553 0
-555 553 0
-556 553 0
549 551 554 555 556 -553 0
19 -553 -557 0
-19 553 -557 0
-19 -553 557 0
19 553 557 0
-22 557 0
549 558 0
551 558 0
554 558 0
555 558 0
556 558 0
-559 0
-19 558 -560 0
19 -558 -560 0
560 -558 -19 0
19 558 560 0
-23 -560 0
551 -561 -562 0
561 -551 -562 0
-551 -561 562 0
551 561 562 0
-20 -562 0
561 -554 -563 0
554 -561 -563 0
563 -561 -554 0
563 561 554 0
-21 563 0
-551 564 0
-554 564 0
-555 564 0
-556 564 0
551 554 555 556 -564 0
561 -564 -565 0
-561 564 -565 0
-561 -564 565 0
561 564 565 0
-22 565 0
551 566 0
554 566 0
555 566 0
556 566 0
-567 0
-561 566 -568 0
561 -566 -568 0
568 -566 -561 0
561 566 568 0
-23 -568 0
554 -569 -570 0
569 -554 -570 0
-554 -569 570 0
554 569 570 0
-20 -570 0
569 -555 -571 0
555 -569 -571 0
571 -569 -555 0
571 569 555 0
-21 571 0
-554 572 0
-555 572 0
-556 572 0
554 555 556 -572 0
569 -572 -573 0
-569 572 -573 0
-569 -572 573 0
569 572 573 0
-22 573 0
554 574 0
555 574 0
556 574 0
-554 -555 -556 -574 0
-569 574 -575 0
569 -574 -575 0
575 -574 -569 0
569 574 575 0
-23 -575 0
555 -576 -577 0
576 -555 -577 0
-555 -576 577 0
555 576 577 0
-20 -577 0
576 -556 -578 0
556 -576 -578 0
578 -576 -556 0
578 576 556 0
-21 578 0
576 -572 -579 0
-576 572 -579 0
-576 -572 579 0
576 572 579 0
-22 579 0
-576 574 -580 0
576 -574 -580 0
580 -574 -576 0
576 574 580 0
-23 -580 0
556 -581 -582 0
581 -556 -582 0
-556 -581 582 0
556 581 582 0
-20 -582 0
-554 581 -583 0
554 -581 -583 0
583 -581 -554 0
583 581 554 0
-21 583 0
581 -572 -584 0
-581 572 -584 0
-581 -572 584 0
581 572 584 0
-22 584 0
-581 574 -585 0
581 -574 -585 0
585 -574 -581 0
581 574 585 0
-23 -585 0
586 587 0
587 -588 0
-586 588 -587 0
24 -587 0
-24 587 0
589 590 0
-591 590 0
-589 591 -590 0
26 -590 0
-26 590 0
592 593 0
593 -594 0
-592 594 -593 0
29 -593 0
-29 593 0
595 596 0
596 -597 0
-595 597 -596 0
43 -596 0
-43 596 0
598 599 0
-600 599 0
-598 600 -599 0
45 -599 0
-45 599 0
601 602 0
-603 602 0
-601 603 -602 0
48 -602 0
-48 602 0
604 605 0
605 -606 0
-604 606 -605 0
49 -605 0
-49 605 0
607 608 0
608 -609 0
-607 609 -608 0
50 -608 0
-50 608 0
610 611 0
-612 611 0
-610 612 -611 0
51 -611 0
-51 611 0
613 614 0
-615 614 0
-613 615 -614 0
86 -614 0
-86 614 0
616 617 0
-618 617 0
-616 618 -617 0
94 -617 0
-94 617 0
619 620 0
620 -621 0
-619 621 -620 0
96 -620 0
-96 620 0
622 623 0
-624 623 0
-622 624 -623 0
99 -623 0
-99 623 0
625 626 0
-627 626 0
-625 627 -626 0
100 -626 0
-100 626 0
628 629 0
629 -630 0
-628 630 -629 0
101 -629 0
-101 629 0
631 632 0
-633 632 0
-631 633 -632 0
102 -632 0
-102 632 0
634 635 0
-636 635 0
-634 636 -635 0
139 -635 0
-139 635 0
637 638 0
-639 638 0
-637 639 -638 0
147 -638 0
-147 638 0
640 641 0
-642 641 0
-640 642 -641 0
149 -641 0
-149 641 0
643 644 0
644 -645 0
-643 645 -644 0
152 -644 0
-152 644 0
646 647 0
-648 647 0
-646 648 -647 0
175 -647 0
-175 647 0
649 650 0
-651 650 0
-649 651 -650 0
183 -650 0
-183 650 0
652 653 0
-654 653 0
-652 654 -653 0
185 -653 0
-185 653 0
655 656 0
-657 656 0
-655 657 -656 0
198 -656 0
-198 656 0
658 659 0
659 -660 0
-658 660 -659 0
200 -659 0
-200 659 0
661 662 0
662 -663 0
-661 663 -662 0
203 -662 0
-203 662 0
664 665 0
665 -666 0
-664 666 -665 0
204 -665 0
-204 665 0
667 668 0
668 -669 0
-667 669 -668 0
205 -668 0
-205 668 0
670 671 0
-672 671 0
-670 672 -671 0
206 -671 0
-206 671 0
673 674 0
674 -675 0
-673 675 -674 0
243 -674 0
-243 674 0
676 677 0
-678 677 0
-676 678 -677 0
245 -677 0
-245 677 0
679 680 0
680 -681 0
-679 681 -680 0
248 -680 0
-248 680 0
682 683 0
-684 683 0
-682 684 -683 0
249 -683 0
-249 683 0
685 686 0
-687 686 0
-685 687 -686 0
250 -686 0
-250 686 0
688 689 0
-690 689 0
-688 690 -689 0
251 -689 0
-251 689 0
691 692 0
-693 692 0
-691 693 -692 0
292 -692 0
-292 692 0
694 695 0
695 -696 0
-694 696 -695 0
294 -695 0
-294 695 0
697 698 0
-699 698 0
-697 699 -698 0
297 -698 0
-297 698 0
700 701 0
-702 701 0
-700 702 -701 0
298 -701 0
-298 701 0
703 704 0
-705 704 0
-703 705 -704 0
299 -704 0
-299 704 0
706 707 0
707 -708 0
-706 708 -707 0
300 -707 0
-300 707 0
709 710 0
-711 710 0
-709 711 -710 0
339 -710 0
-339 710 0
712 713 0
-714 713 0
-712 714 -713 0
341 -713 0
-341 713 0
715 716 0
716 -717 0
-715 717 -716 0
344 -716 0
-344 716 0
718 719 0
-720 719 0
-718 720 -719 0
345 -719 0
-345 719 0
721 722 0
-723 722 0
-721 723 -722 0
346 -722 0
-346 722 0
724 725 0
725 -726 0
-724 726 -725 0
347 -725 0
-347 725 0
727 728 0
-729 728 0
-727 729 -728 0
348 -728 0
-348 728 0
730 731 0
-732 731 0
-730 732 -731 0
349 -731 0
-349 731 0
733 734 0
-735 734 0
-733 735 -734 0
404 -734 0
-404 734 0
736 737 0
-738 737 0
-736 738 -737 0
406 -737 0
-406 737 0
739 740 0
-741 740 0
-739 741 -740 0
420 -740 0
-420 740 0
742 743 0
-744 743 0
-742 744 -743 0
422 -743 0
-422 743 0
745 746 0
-747 746 0
-745 747 -746 0
425 -746 0
-425 746 0
748 749 0
-750 749 0
-748 750 -749 0
426 -749 0
-426 749 0
751 752 0
752 -753 0
-751 753 -752 0
427 -752 0
-427 752 0
754 755 0
755 -756 0
-754 756 -755 0
457 -755 0
-457 755 0
757 758 0
758 -759 0
-757 759 -758 0
459 -758 0
-459 758 0
760 761 0
-762 761 0
-760 762 -761 0
462 -761 0
-462 761 0
763 764 0
-765 764 0
-763 765 -764 0
463 -764 0
-463 764 0
766 767 0
-768 767 0
-766 768 -767 0
464 -767 0
-464 767 0
769 770 0
-771 770 0
-769 771 -770 0
496 -770 0
-496 770 0
772 773 0
-774 773 0
-772 774 -773 0
498 -773 0
-498 773 0
775 776 0
-777 776 0
-775 777 -776 0
501 -776 0
-501 776 0
778 779 0
-780 779 0
-778 780 -779 0
502 -779 0
-502 779 0
781 782 0
-783 782 0
-781 783 -782 0
503 -782 0
-503 782 0
784 785 0
-786 785 0
-784 786 -785 0
533 -785 0
-533 785 0
787 788 0
-789 788 0
-787 789 -788 0
535 -788 0
-535 788 0
790 791 0
791 -792 0
-790 792 -791 0
549 -791 0
-549 791 0
793 794 0
-795 794 0
-793 795 -794 0
551 -794 0
-551 794 0
796 797 0
-798 797 0
-796 798 -797 0
554 -797 0
-554 797 0
799 800 0
800 -801 0
-799 801 -800 0
555 -800 0
-555 800 0
802 803 0
-804 803 0
-802 804 -803 0
556 -803 0
-556 803 0
586 0
-589 0
592 0
595 0
-598 0
-601 0
604 0
607 0
-610 0
-613 0
-616 0
619 0
-622 0
-625 0
628 0
-631 0
-634 0
-637 0
-640 0
643 0
-646 0
-649 0
-652 0
655 0
658 0
661 0
664 0
667 0
-670 0
673 0
-676 0
679 0
-682 0
-685 0
688 0
-691 0
694 0
697 0
-700 0
-703 0
706 0
-709 0
-712 0
715 0
-718 0
-721 0
724 0
-727 0
730 0
733 0
736 0
-739 0
-742 0
745 0
-748 0
751 0
754 0
757 0
-760 0
763 0
-766 0
-769 0
772 0
775 0
-778 0
-781 0
-784 0
787 0
790 0
-793 0
796 0
799 0
-802 0
-805 -806 0
588 -805 0
591 -805 0
594 -805 0
597 -805 0
600 -805 0
603 -805 0
606 -805 0
609 -805 0
612 -805 0
-805 -615 0
618 -805 0
621 -805 0
624 -805 0
627 -805 0
630 -805 0
633 -805 0
-805 -636 0
639 -805 0
-805 -642 0
645 -805 0
648 -805 0
651 -805 0
-805 -654 0
-805 -657 0
660 -805 0
663 -805 0
666 -805 0
669 -805 0
-805 -672 0
675 -805 0
678 -805 0
681 -805 0
-805 -684 0
-805 -687 0
-805 -690 0
-805 -693 0
696 -805 0
-805 -699 0
-805 -702 0
-805 -705 0
708 -805 0
-805 -711 0
-805 -714 0
717 -805 0
-805 -720 0
-805 -723 0
726 -805 0
-805 -729 0
-805 -732 0
-805 -735 0
-805 -738 0
741 -805 0
744 -805 0
-805 -747 0
-805 -750 0
753 -805 0
756 -805 0
759 -805 0
-805 -762 0
-805 -765 0
768 -805 0
771 -805 0
-805 -774 0
-805 -777 0
780 -805 0
-805 -783 0
-805 -786 0
-805 -789 0
792 -805 0
-805 -795 0
-805 -798 0
801 -805 0
804 -805 0
588 -806 0
-806 -591 0
594 -806 0
597 -806 0
-806 -600 0
-806 -603 0
606 -806 0
609 -806 0
-806 -612 0
-806 -615 0
-806 -618 0
621 -806 0
-806 -624 0
-806 -627 0
630 -806 0
-806 -633 0
-806 -636 0
-806 -639 0
-806 -642 0
645 -806 0
-806 -648 0
-806 -651 0
-806 -654 0
657 -806 0
660 -806 0
663 -806 0
666 -806 0
669 -806 0
-806 -672 0
675 -806 0
-806 -678 0
681 -806 0
-806 -684 0
-806 -687 0
690 -806 0
-806 -693 0
696 -806 0
699 -806 0
-806 -702 0
-806 -705 0
708 -806 0
-806 -711 0
-806 -714 0
717 -806 0
-806 -720 0
-806 -723 0
726 -806 0
-806 -729 0
732 -806 0
735 -806 0
738 -806 0
-806 -741 0
-806 -744 0
747 -806 0
-806 -750 0
753 -806 0
756 -806 0
759 -806 0
-806 -762 0
765 -806 0
-806 -768 0
-806 -771 0
774 -806 0
777 -806 0
-806 -780 0
-806 -783 0
-806 -786 0
789 -806 0
792 -806 0
-806 -795 0
798 -806 0
801 -806 0
-806 -804 0
805 806 0
-807 0
-808 0
-809 0
-810 0
-811 0
-812 0
-813 0
-814 0
